(declare-const a Real)
(declare-const b Real)
(declare-const c Real)
(declare-const d Real)
(assert (= (+ a b c d) 4))
(assert (> a 0))
(assert (> b 0))
(assert (> c 0))
(assert (> d 0))
(assert (not (<= (+ 1 (* (pow (* b d) (* (pow (+ (* (/ 1 2) (pow (+ (pow b 3) (* 63 a c d)) (pow 3 -1))) (* (/ 1 2) (pow (+ (pow d 3) (* 63 a b c)) (pow 3 -1)))) -1) (pow (+ (* 2 (pow (+ (* (/ 1 2) (pow (+ (pow b 3) (* 63 a c d)) (pow 3 -1))) (* (/ 1 2) (pow (+ (pow d 3) (* 63 a b c)) (pow 3 -1)))) -1)) (* a (pow (+ (pow a 3) (* 63 b c d)) (/ -1 3)))) -1))) (+ (* -2 (pow (+ (* (/ 1 2) (pow (+ (pow b 3) (* 63 a c d)) (pow 3 -1))) (* (/ 1 2) (pow (+ (pow d 3) (* 63 a b c)) (pow 3 -1)))) -1)) (* -1 a (pow (+ (pow a 3) (* 63 b c d)) (/ -1 3))))) (* -1 c (pow (+ (pow c 3) (* 63 a b d)) (/ -1 3)))) 0)))
(check-sat)
(get-model)
(exit)